&CONTROL
   calculation = 'scf'
   prefix = 'si'
   pseudo_dir = '/home/vr371/PP/ofpp/EAC/upf/blps'
   restart_mode = 'from_scratch'
/

&SYSTEM
   ibrav = 0
   nat = 98
   degauss = 0.005
   ecutwfc = 60
   occupations = 'smearing'
   ntyp = 1
/

&ELECTRONS
/

&IONS
/

&CELL
/

&FCP
/

&RISM
/

ATOMIC_SPECIES
Si  28.08 si.lda.upf

K_POINTS automatic
20 20 20 1 1 1

CELL_PARAMETERS angstrom
7.69600000000000 0.00000000000000 0.00000000000000
0.00000000000000 7.69600000000000 0.00000000000000
0.00000000000000 0.00000000000000 11.80800000000000

ATOMIC_POSITIONS angstrom
Si   0.00000000000000 0.00000000000000 0.00000000000000
Si   1.92400000000000 1.92400000000000 1.06000000000000
Si   0.00000000000000 1.92400000000000 0.53000000000000
Si   1.92400000000000 0.00000000000000 1.59000000000000
Si   0.00000000000000 0.00000000000000 2.12000000000000
Si   1.92400000000000 1.92400000000000 3.18000000000000
Si   0.00000000000000 1.92400000000000 2.65000000000000
Si   1.92400000000000 0.00000000000000 3.71000000000000
Si   0.00000000000000 0.00000000000000 4.24000000000000
Si   1.92400000000000 1.92400000000000 5.30000000000000
Si   0.00000000000000 1.92400000000000 4.77000000000000
Si   1.92400000000000 0.00000000000000 5.83000000000000
Si   0.00000000000000 3.84800000000000 0.00000000000000
Si   1.92400000000000 5.77200000000000 1.06000000000000
Si   0.00000000000000 5.77200000000000 0.53000000000000
Si   1.92400000000000 3.84800000000000 1.59000000000000
Si   0.00000000000000 3.84800000000000 2.12000000000000
Si   1.92400000000000 5.77200000000000 3.18000000000000
Si   0.00000000000000 5.77200000000000 2.65000000000000
Si   1.92400000000000 3.84800000000000 3.71000000000000
Si   0.00000000000000 3.84800000000000 4.24000000000000
Si   1.92400000000000 5.77200000000000 5.30000000000000
Si   0.00000000000000 5.77200000000000 4.77000000000000
Si   1.92400000000000 3.84800000000000 5.83000000000000
Si   3.84800000000000 0.00000000000000 0.00000000000000
Si   5.77200000000000 1.92400000000000 1.06000000000000
Si   3.84800000000000 1.92400000000000 0.53000000000000
Si   5.77200000000000 0.00000000000000 1.59000000000000
Si   3.84800000000000 0.00000000000000 2.12000000000000
Si   5.77200000000000 1.92400000000000 3.18000000000000
Si   3.84800000000000 1.92400000000000 2.65000000000000
Si   5.77200000000000 0.00000000000000 3.71000000000000
Si   3.84800000000000 0.00000000000000 4.24000000000000
Si   5.77200000000000 1.92400000000000 5.30000000000000
Si   3.84800000000000 1.92400000000000 4.77000000000000
Si   5.77200000000000 0.00000000000000 5.83000000000000
Si   3.84800000000000 3.84800000000000 0.00000000000000
Si   5.77200000000000 5.77200000000000 1.06000000000000
Si   3.84800000000000 5.77200000000000 0.53000000000000
Si   5.77200000000000 3.84800000000000 1.59000000000000
Si   3.84800000000000 3.84800000000000 2.12000000000000
Si   5.77200000000000 5.77200000000000 3.18000000000000
Si   3.84800000000000 5.77200000000000 2.65000000000000
Si   5.77200000000000 3.84800000000000 3.71000000000000
Si   3.84800000000000 3.84800000000000 4.24000000000000
Si   5.77200000000000 5.77200000000000 5.30000000000000
Si   3.84800000000000 5.77200000000000 4.77000000000000
Si   5.77200000000000 3.84800000000000 5.83000000000000
Si   0.00000000000000 0.00000000000000 6.36000000000000
Si   0.00000000000000 1.36200000000000 7.72200000000000
Si   1.36200000000000 0.00000000000000 7.72200000000000
Si   1.36200000000000 1.36200000000000 6.36000000000000
Si   0.00000000000000 0.00000000000000 9.08400000000000
Si   0.00000000000000 1.36200000000000 10.44600000000000
Si   1.36200000000000 0.00000000000000 10.44600000000000
Si   1.36200000000000 1.36200000000000 9.08400000000000
Si   0.00000000000000 2.72400000000000 6.36000000000000
Si   0.00000000000000 4.08600000000000 7.72200000000000
Si   1.36200000000000 2.72400000000000 7.72200000000000
Si   1.36200000000000 4.08600000000000 6.36000000000000
Si   0.00000000000000 2.72400000000000 9.08400000000000
Si   0.00000000000000 4.08600000000000 10.44600000000000
Si   1.36200000000000 2.72400000000000 10.44600000000000
Si   1.36200000000000 4.08600000000000 9.08400000000000
Si   0.00000000000000 5.44800000000000 6.36000000000000
Si   1.36200000000000 5.44800000000000 7.72200000000000
Si   0.00000000000000 5.44800000000000 9.08400000000000
Si   1.36200000000000 5.44800000000000 10.44600000000000
Si   2.72400000000000 0.00000000000000 6.36000000000000
Si   2.72400000000000 1.36200000000000 7.72200000000000
Si   4.08600000000000 0.00000000000000 7.72200000000000
Si   4.08600000000000 1.36200000000000 6.36000000000000
Si   2.72400000000000 0.00000000000000 9.08400000000000
Si   2.72400000000000 1.36200000000000 10.44600000000000
Si   4.08600000000000 0.00000000000000 10.44600000000000
Si   4.08600000000000 1.36200000000000 9.08400000000000
Si   2.72400000000000 2.72400000000000 6.36000000000000
Si   2.72400000000000 4.08600000000000 7.72200000000000
Si   4.08600000000000 2.72400000000000 7.72200000000000
Si   4.08600000000000 4.08600000000000 6.36000000000000
Si   2.72400000000000 2.72400000000000 9.08400000000000
Si   2.72400000000000 4.08600000000000 10.44600000000000
Si   4.08600000000000 2.72400000000000 10.44600000000000
Si   4.08600000000000 4.08600000000000 9.08400000000000
Si   2.72400000000000 5.44800000000000 6.36000000000000
Si   4.08600000000000 5.44800000000000 7.72200000000000
Si   2.72400000000000 5.44800000000000 9.08400000000000
Si   4.08600000000000 5.44800000000000 10.44600000000000
Si   5.44800000000000 0.00000000000000 6.36000000000000
Si   5.44800000000000 1.36200000000000 7.72200000000000
Si   5.44800000000000 0.00000000000000 9.08400000000000
Si   5.44800000000000 1.36200000000000 10.44600000000000
Si   5.44800000000000 2.72400000000000 6.36000000000000
Si   5.44800000000000 4.08600000000000 7.72200000000000
Si   5.44800000000000 2.72400000000000 9.08400000000000
Si   5.44800000000000 4.08600000000000 10.44600000000000
Si   5.44800000000000 5.44800000000000 6.36000000000000
Si   5.44800000000000 5.44800000000000 9.08400000000000

